InboundTrucks  = 20;
OutboundTrucks = 13;
InboundDoors   = 2;
OutboundDoors  = 1;
ReleaseTime    = [3,17,5,49,26,17,6,53,57,55,2,24,34,35,21,21,54,3,10,8];
UnloadTime     = [12,7,1,5,22,1,11,1,2,1,10,25,11,3,12,7,20,4,23,25];
LoadTime       = [20,9,10,12,11,8,3,12,5,17,9,2,11];
TransferTime   = [| 0,0,5,0,7,0,0,0,0,6,5,0,0 | 0,0,0,0,0,0,0,1,3,0,0,0,0 | 3,0,0,0,2,8,0,0,0,0,0,6,0 | 0,5,5,0,0,3,2,0,0,0,3,6,0 | 0,0,0,4,0,8,0,0,0,0,8,0,0 | 0,0,0,0,0,0,2,0,0,4,0,0,0 | 0,3,5,0,7,3,0,0,0,0,0,0,0 | 0,1,4,0,3,2,5,0,7,0,0,0,0 | 0,1,0,5,0,0,4,0,0,4,0,0,0 | 0,0,0,0,0,7,3,0,0,0,0,2,0 | 6,4,0,3,0,0,0,0,0,0,0,4,0 | 0,0,4,0,0,0,2,0,0,6,1,0,0 | 0,0,4,0,4,0,0,0,1,0,0,0,3 | 0,0,8,0,0,0,0,0,1,0,0,0,2 | 2,0,0,0,0,0,0,4,0,0,0,0,5 | 0,3,3,0,0,1,0,0,0,0,3,0,0 | 0,0,0,1,0,0,0,0,2,0,1,3,0 | 0,0,2,3,0,2,0,0,0,0,0,0,0 | 0,4,0,0,0,0,0,0,0,0,0,1,0 | 1,0,0,0,0,0,0,2,0,0,0,2,0 |];
